n = 8;
size = 15;
posibilities = array2d(1..size, 1..n-2, [
  0, 0, 1, 1, 1, 1,
  0, 1, 0, 1, 1, 1,
  0, 1, 1, 0, 1, 1,
  0, 1, 1, 1, 0, 1,
  0, 1, 1, 1, 1, 0,
  1, 0, 0, 1, 1, 1,
  1, 0, 1, 0, 1, 1,
  1, 0, 1, 1, 0, 1,
  1, 0, 1, 1, 1, 0,
  1, 1, 0, 0, 1, 1,
  1, 1, 0, 1, 0, 1,
  1, 1, 0, 1, 1, 0,
  1, 1, 1, 0, 0, 1,
  1, 1, 1, 0, 1, 0,
  1, 1, 1, 1, 0, 0
]);